(set-info :smt-lib-version 2.6)
(set-logic UFNIA)
(set-info :source |
Generated by: Geoff Sutcliffe
Generated on: 2026-03-11
Generator: TPTPWorld
Application: Benchmarking automated theorem provers
Time limit: 120.0

These benchmarks are translations from the TPTP Library (Thousands of
Problems for Theorem Provers), see http://www.cs.miami.edu/~tptp/

The TPTP is maintained by Geoff Sutcliffe, and he contributed this
selection of benchmarks to SMT-LIB.  They were exported from the
v9.2.1 realease of TPTP.
|)
(set-info :category "industrial")
(set-info :status "unknown")
; SZS status Success
(declare-sort $$unsorted 0)
(declare-fun tptp.v0 (Int) Int)
(declare-fun tptp.u2 (Int Int) Int)
(declare-fun tptp.f2 (Int) Int)
(declare-fun tptp.u0 (Int Int) Int)
(declare-fun tptp.w1 (Int Int) Int)
(declare-fun tptp.i1 () Int)
(declare-fun tptp.v1 (Int Int Int) Int)
(declare-fun tptp.v2 (Int) Int)
(declare-fun tptp.g0 (Int) Int)
(declare-fun tptp.u1 (Int Int Int) Int)
(declare-fun tptp.g1 (Int Int) Int)
(declare-fun tptp.h2 (Int) Int)
(declare-fun tptp.h1 () Int)
(declare-fun tptp.j1 (Int Int) Int)
(declare-fun tptp.f0 (Int Int) Int)
(declare-fun tptp.h0 () Int)
(declare-fun tptp.fast (Int) Int)
(declare-fun tptp.f1 (Int Int) Int)
(declare-fun tptp.small (Int) Int)
(declare-fun tptp.g2 () Int)
(assert (forall ((X Int) (Y Int)) (= (tptp.f1 X Y) (+ (* (* X Y) Y) X))))
(assert (forall ((X Int) (Y Int)) (= (tptp.g1 X Y) (+ (+ Y Y) Y))))
(assert (= tptp.h1 2))
(assert (= tptp.i1 2))
(assert (forall ((X Int) (Y Int)) (= (tptp.j1 X Y) Y)))
(assert (forall ((X Int) (Y Int) (Z Int)) (let ((_let_1 (- X 1))) (let ((_let_2 (tptp.u1 X Y Z))) (let ((_let_3 (<= X 0))) (and (=> _let_3 (= _let_2 Y)) (=> (not _let_3) (= _let_2 (tptp.f1 (tptp.u1 _let_1 Y Z) (tptp.v1 _let_1 Y Z))))))))))
(assert (forall ((X Int) (Y Int) (Z Int)) (let ((_let_1 (- X 1))) (let ((_let_2 (tptp.v1 X Y Z))) (let ((_let_3 (<= X 0))) (and (=> _let_3 (= _let_2 Z)) (=> (not _let_3) (= _let_2 (tptp.g1 (tptp.u1 _let_1 Y Z) (tptp.v1 _let_1 Y Z))))))))))
(assert (forall ((X Int) (Y Int)) (= (tptp.w1 X Y) (tptp.u1 tptp.h1 tptp.i1 (tptp.j1 X Y)))))
(assert (forall ((X Int) (Y Int)) (= (tptp.f0 X Y) (tptp.w1 X Y))))
(assert (forall ((X Int)) (= (tptp.g0 X) X)))
(assert (= tptp.h0 1))
(assert (forall ((X Int) (Y Int)) (let ((_let_1 (tptp.u0 X Y))) (let ((_let_2 (<= X 0))) (and (=> _let_2 (= _let_1 Y)) (=> (not _let_2) (= _let_1 (tptp.f0 (tptp.u0 (- X 1) Y) X))))))))
(assert (forall ((X Int)) (= (tptp.v0 X) (tptp.u0 (tptp.g0 X) tptp.h0))))
(assert (forall ((X Int)) (= (tptp.small X) (tptp.v0 X))))
(assert (forall ((X Int)) (= (tptp.f2 X) (* X X))))
(assert (= tptp.g2 1))
(assert (forall ((X Int)) (= (tptp.h2 X) (+ (+ X X) X))))
(assert (forall ((X Int) (Y Int)) (let ((_let_1 (tptp.u2 X Y))) (let ((_let_2 (<= X 0))) (and (=> _let_2 (= _let_1 Y)) (=> (not _let_2) (= _let_1 (tptp.f2 (tptp.u2 (- X 1) Y)))))))))
(assert (forall ((X Int)) (= (tptp.v2 X) (tptp.u2 tptp.g2 (tptp.h2 X)))))
(assert (forall ((X Int)) (let ((_let_1 (+ (* X X) 1))) (let ((_let_2 (* 2 (tptp.v2 X)))) (let ((_let_3 (tptp.fast X))) (let ((_let_4 (<= X 0))) (and (=> _let_4 (= _let_3 (* (+ _let_2 1) _let_1))) (=> (not _let_4) (= _let_3 (* (+ _let_2 2) _let_1))))))))))
(assert (not (not (exists ((C Int)) (and (>= C 0) (not (= (tptp.small C) (tptp.fast C))))))))
(check-sat)
